Grasp exp. instance_n_20_m_10_id_2.lp tipoLifted 0 szPool 5 nIteration 20 alpha 0.8 
Academic license - for non-commercial use only
Read LP format model from file ../input/instancesGenerated/instance_n_20_m_10_id_2.lp
Reading time = 0.00 seconds
: 10 rows, 20 columns, 104 nonzeros
Optimize a model with 10 rows, 20 columns and 104 nonzeros
Variable types: 0 continuous, 20 integer (20 binary)
Coefficient statistics:
  Matrix range     [1e+00, 1e+01]
  Objective range  [1e+00, 1e+01]
  Bounds range     [1e+00, 1e+00]
  RHS range        [2e+01, 3e+01]
Found heuristic solution: objective 42.0000000

Explored 0 nodes (0 simplex iterations) in 0.00 seconds
Thread count was 1 (of 8 available processors)

Solution count 1: 42 
No other solutions better than 0

Solution limit reached
Best objective 4.200000000000e+01, best bound -, gap -
C_1:	 9.00 x_1  = 1.000000 + 8.00 x_2  = 0.000000 + 5.00 x_3  = 0.461994 + 5.00 x_7  = 0.000000 + 8.00 x_9  = 0.000000 + 2.00 x_10  = 0.891217 + 9.00 x_13  = 0.776061 + 3.00 x_15  = 0.245656 + 2.00 x_16  = 1.000000 + 7.00 x_18  = 0.499133 + 8.00 x_19  = 0.836518 <= 33.00
C_2:	 6.00 x_1  = 1.000000 + 8.00 x_2  = 0.000000 + 1.00 x_4  = 1.000000 + 10.00 x_5  = 0.199131 + 8.00 x_6  = 0.000000 + 5.00 x_8  = 1.000000 + 2.00 x_12  = 0.000000 + 2.00 x_13  = 0.776061 + 10.00 x_15  = 0.245656 + 10.00 x_16  = 1.000000 + 4.00 x_17  = 1.000000 + 2.00 x_20  = 1.000000 <= 34.00
C_3:	 3.00 x_1  = 1.000000 + 4.00 x_2  = 0.000000 + 3.00 x_3  = 0.461994 + 3.00 x_4  = 1.000000 + 4.00 x_5  = 0.199131 + 8.00 x_7  = 0.000000 + 10.00 x_8  = 1.000000 + 9.00 x_9  = 0.000000 + 1.00 x_10  = 0.891217 + 1.00 x_12  = 0.000000 + 1.00 x_14  = 1.000000 + 1.00 x_18  = 0.499133 + 5.00 x_20  = 1.000000 <= 26.00
C_4:	 6.00 x_4  = 1.000000 + 9.00 x_6  = 0.000000 + 6.00 x_7  = 0.000000 + 5.00 x_9  = 0.000000 + 1.00 x_10  = 0.891217 + 10.00 x_12  = 0.000000 + 8.00 x_15  = 0.245656 + 8.00 x_19  = 0.836518 <= 26.00
C_5:	 6.00 x_6  = 0.000000 + 10.00 x_7  = 0.000000 + 7.00 x_11  = 1.000000 + 6.00 x_14  = 1.000000 + 4.00 x_15  = 0.245656 + 2.00 x_18  = 0.499133 + 6.00 x_19  = 0.836518 <= 20.00
C_6:	 7.00 x_3  = 0.461994 + 1.00 x_5  = 0.199131 + 8.00 x_6  = 0.000000 + 2.00 x_7  = 0.000000 + 3.00 x_9  = 0.000000 + 6.00 x_10  = 0.891217 + 4.00 x_14  = 1.000000 + 5.00 x_15  = 0.245656 + 8.00 x_16  = 1.000000 + 10.00 x_18  = 0.499133 <= 27.00
C_7:	 6.00 x_1  = 1.000000 + 4.00 x_3  = 0.461994 + 9.00 x_4  = 1.000000 + 6.00 x_6  = 0.000000 + 10.00 x_7  = 0.000000 + 4.00 x_9  = 0.000000 + 5.00 x_12  = 0.000000 + 7.00 x_13  = 0.776061 + 6.00 x_14  = 1.000000 + 7.00 x_15  = 0.245656 + 2.00 x_16  = 1.000000 + 2.00 x_20  = 1.000000 <= 34.00
C_8:	 4.00 x_1  = 1.000000 + 8.00 x_2  = 0.000000 + 2.00 x_4  = 1.000000 + 8.00 x_6  = 0.000000 + 8.00 x_7  = 0.000000 + 9.00 x_9  = 0.000000 + 1.00 x_10  = 0.891217 + 2.00 x_15  = 0.245656 + 6.00 x_17  = 1.000000 + 5.00 x_18  = 0.499133 + 10.00 x_19  = 0.836518 <= 31.00
C_9:	 3.00 x_1  = 1.000000 + 3.00 x_4  = 1.000000 + 10.00 x_5  = 0.199131 + 4.00 x_6  = 0.000000 + 6.00 x_7  = 0.000000 + 1.00 x_8  = 1.000000 + 1.00 x_11  = 1.000000 + 10.00 x_12  = 0.000000 + 2.00 x_14  = 1.000000 + 7.00 x_16  = 1.000000 + 1.00 x_18  = 0.499133 + 3.00 x_19  = 0.836518 + 6.00 x_20  = 1.000000 <= 28.00
C_10:	 3.00 x_5  = 0.199131 + 7.00 x_8  = 1.000000 + 7.00 x_9  = 0.000000 + 4.00 x_10  = 0.891217 + 6.00 x_12  = 0.000000 + 3.00 x_13  = 0.776061 + 3.00 x_19  = 0.836518 <= 16.00
Solution initial: 73.848370 
Number Constraints Used in Cover:10
GRASP Method!
Number cuts repeat: 0
value: 73.848370
Number Constraints Used in Cover:18
GRASP Method!
Number cuts repeat: 0
value: 73.848370
Number Constraints Used in Cover:22
GRASP Method!
Number cuts repeat: 0
value: 73.848370
Number Constraints Used in Cover:30
GRASP Method!
Number cuts repeat: 0
value: 73.848370
Number Constraints Used in Cover:36
GRASP Method!
Number cuts repeat: 0
value: 73.848370
Number Constraints Used in Cover:45
GRASP Method!
Number cuts repeat: 0
value: 73.848370
Number Constraints Used in Cover:52
GRASP Method!
Number cuts repeat: 0
value: 73.848370
Number Constraints Used in Cover:56
GRASP Method!
Number cuts repeat: 0
value: 73.848370
Number Constraints Used in Cover:66
GRASP Method!
Number cuts repeat: 0
value: 73.848370
Number Constraints Used in Cover:73
GRASP Method!
Number cuts repeat: 0
value: 73.848370
Number Constraints Used in Cover:78
GRASP Method!
Number cuts repeat: 0
value: 73.848370
Number Constraints Used in Cover:92
GRASP Method!
Number cuts repeat: 0
value: 73.848370
Number Constraints Used in Cover:105
GRASP Method!
Number cuts repeat: 0
value: 73.848370
Number Constraints Used in Cover:129
GRASP Method!
Number cuts repeat: 0
value: 73.848370
Number Constraints Used in Cover:143
GRASP Method!
Number cuts repeat: 0
value: 73.848370
Number Constraints Used in Cover:165
GRASP Method!
Number cuts repeat: 0
value: 73.848370
Number Constraints Used in Cover:189
GRASP Method!
Number cuts repeat: 0
value: 73.848370
Number Constraints Used in Cover:207
GRASP Method!
Number cuts repeat: 0
value: 73.848370
Number Constraints Used in Cover:230
GRASP Method!
Number cuts repeat: 0
value: 73.848370
Number Constraints Used in Cover:246
GRASP Method!
Number cuts repeat: 0
value: 73.848370
Number Constraints Used in Cover:263
GRASP Method!
Number cuts repeat: 0
value: 73.848370
Number Constraints Used in Cover:271
GRASP Method!
Number cuts repeat: 0
value: 73.848370
Number Constraints Used in Cover:296
GRASP Method!
Number cuts repeat: 0
value: 73.848370
Number Constraints Used in Cover:308
GRASP Method!
Number cuts repeat: 0
value: 73.848370
Number Constraints Used in Cover:328
GRASP Method!
Number cuts repeat: 0
value: 73.848370
Number Constraints Used in Cover:337
GRASP Method!
Number cuts repeat: 0
value: 73.848370
Number Constraints Used in Cover:355
GRASP Method!
Number cuts repeat: 0
value: 73.848370
Number Constraints Used in Cover:369
GRASP Method!
Number cuts repeat: 0
value: 73.848370
Number Constraints Used in Cover:387
GRASP Method!
Number cuts repeat: 0
value: 73.848370
Number Constraints Used in Cover:399
GRASP Method!
Number cuts repeat: 0
value: 73.848370
Number Constraints Used in Cover:413
GRASP Method!
Number cuts repeat: 0
value: 73.848370
Number Constraints Used in Cover:426
GRASP Method!
Number cuts repeat: 0
value: 73.848370
Number Constraints Used in Cover:431
GRASP Method!
Number cuts repeat: 0
value: 73.848370
Number Constraints Used in Cover:437
GRASP Method!
Number cuts repeat: 0
value: 73.848370
Number Constraints Used in Cover:439
GRASP Method!
Number cuts repeat: 0
value: 73.848370
Number Constraints Used in Cover:447
GRASP Method!
Number cuts repeat: 0
value: 73.848370
Number Constraints Used in Cover:450
GRASP Method!
Number cuts repeat: 0
value: 73.848370
Number Constraints Used in Cover:451
GRASP Method!
Number cuts repeat: 0
value: 73.848370
Number Constraints Used in Cover:454
GRASP Method!
Number cuts repeat: 0
value: 73.848370
Number Constraints Used in Cover:454
GRASP Method!
Number cuts repeat: 0
value: 73.848055
Number Constraints Used in Cover:461
GRASP Method!
Number cuts repeat: 0
value: 73.848055
Number Constraints Used in Cover:468
GRASP Method!
Number cuts repeat: 0
value: 73.848055
Number Constraints Used in Cover:478
GRASP Method!
Number cuts repeat: 0
value: 73.848055
Number Constraints Used in Cover:489
GRASP Method!
Number cuts repeat: 0
value: 73.848055
Number Constraints Used in Cover:504
GRASP Method!
Number cuts repeat: 0
value: 73.848055
Number Constraints Used in Cover:519
GRASP Method!
Number cuts repeat: 0
value: 73.848055
Number Constraints Used in Cover:533
GRASP Method!
Number cuts repeat: 0
value: 73.848055
Number Constraints Used in Cover:536
GRASP Method!
Number cuts repeat: 0
value: 73.848055
Number Constraints Used in Cover:547
GRASP Method!
Number cuts repeat: 0
value: 73.848055
Number Constraints Used in Cover:555
GRASP Method!
Number cuts repeat: 0
value: 73.848055
Number Constraints Used in Cover:565
GRASP Method!
Number cuts repeat: 0
value: 73.848055
Number Constraints Used in Cover:569
GRASP Method!
Number cuts repeat: 0
value: 73.848055
Number Constraints Used in Cover:581
GRASP Method!
Number cuts repeat: 0
value: 73.848055
Number Constraints Used in Cover:586
GRASP Method!
Number cuts repeat: 0
value: 73.848055
Number Constraints Used in Cover:594
GRASP Method!
Number cuts repeat: 0
value: 73.848055
Number Constraints Used in Cover:601
GRASP Method!
Number cuts repeat: 0
value: 73.848055
Number Constraints Used in Cover:608
GRASP Method!
Number cuts repeat: 0
value: 73.848055
Number Constraints Used in Cover:618
GRASP Method!
Number cuts repeat: 0
value: 73.848055
Number Constraints Used in Cover:626
GRASP Method!
Number cuts repeat: 0
value: 73.848055
Number Constraints Used in Cover:634
GRASP Method!
Number cuts repeat: 0
value: 73.848055
Number Constraints Used in Cover:640
GRASP Method!
Number cuts repeat: 0
value: 73.848055
Number Constraints Used in Cover:645
GRASP Method!
Number cuts repeat: 0
value: 73.848055
Number Constraints Used in Cover:654
GRASP Method!
Number cuts repeat: 0
value: 73.848055
Number Constraints Used in Cover:663
GRASP Method!
Number cuts repeat: 0
value: 73.848055
Number Constraints Used in Cover:667
GRASP Method!
Number cuts repeat: 0
value: 73.848055
Number Constraints Used in Cover:680
GRASP Method!
Number cuts repeat: 0
value: 73.848055
Number Constraints Used in Cover:687
GRASP Method!
Number cuts repeat: 0
value: 73.848055
Number Constraints Used in Cover:689
GRASP Method!
Number cuts repeat: 0
value: 73.848055
Number Constraints Used in Cover:693
GRASP Method!
Number cuts repeat: 0
value: 73.848055
Number Constraints Used in Cover:696
GRASP Method!
Number cuts repeat: 0
value: 73.848055
Number Constraints Used in Cover:700
GRASP Method!
Number cuts repeat: 0
value: 73.848055
Number Constraints Used in Cover:703
GRASP Method!
Number cuts repeat: 0
value: 73.848055
Number Constraints Used in Cover:708
GRASP Method!
Number cuts repeat: 0
value: 73.848055
Number Constraints Used in Cover:720
GRASP Method!
Number cuts repeat: 0
value: 73.848055
Number Constraints Used in Cover:724
GRASP Method!
Number cuts repeat: 0
value: 73.848055
Number Constraints Used in Cover:732
GRASP Method!
Number cuts repeat: 0
value: 73.848055
Number Constraints Used in Cover:739
GRASP Method!
Number cuts repeat: 0
value: 73.848055
Number Constraints Used in Cover:740
GRASP Method!
Number cuts repeat: 0
value: 73.848055
Number Constraints Used in Cover:742
GRASP Method!
Number cuts repeat: 0
value: 73.848055
Number Constraints Used in Cover:742
GRASP Method!
Number cuts repeat: 0
value: 73.848055
Number Constraints Used in Cover:745
GRASP Method!
Number cuts repeat: 0
value: 73.848055
Number Constraints Used in Cover:745
GRASP Method!
Number cuts repeat: 0
value: 73.848055
Number Constraints Used in Cover:749
GRASP Method!
Number cuts repeat: 0
value: 73.848055
Number Constraints Used in Cover:753
GRASP Method!
Number cuts repeat: 0
value: 73.848055
Number Constraints Used in Cover:758
GRASP Method!
Number cuts repeat: 0
value: 73.848055
Number Constraints Used in Cover:766
GRASP Method!
Number cuts repeat: 0
value: 73.848055
Number Constraints Used in Cover:768
GRASP Method!
Number cuts repeat: 0
value: 73.848055
Number Constraints Used in Cover:772
GRASP Method!
Number cuts repeat: 0
value: 73.848055
Number Constraints Used in Cover:776
GRASP Method!
Number cuts repeat: 0
value: 73.848055
Number Constraints Used in Cover:783
GRASP Method!
Number cuts repeat: 0
value: 73.848055
Number Constraints Used in Cover:788
GRASP Method!
Number cuts repeat: 0
value: 73.848055
Number Constraints Used in Cover:789
GRASP Method!
Number cuts repeat: 0
value: 73.848055
Number Constraints Used in Cover:791
GRASP Method!
Number cuts repeat: 0
value: 73.848055
Number Constraints Used in Cover:793
GRASP Method!
Number cuts repeat: 0
value: 73.848055
Number Constraints Used in Cover:800
GRASP Method!
Number cuts repeat: 0
value: 73.848055
Number Constraints Used in Cover:807
GRASP Method!
Number cuts repeat: 0
value: 73.848055
Number Constraints Used in Cover:809
GRASP Method!
Number cuts repeat: 0
value: 73.848055
Number Constraints Used in Cover:818
GRASP Method!
Number cuts repeat: 0
value: 73.848055
Number Constraints Used in Cover:822
GRASP Method!
Number cuts repeat: 0
value: 73.848055
Number Constraints Used in Cover:824
GRASP Method!
Number cuts repeat: 0
value: 73.848055
Number Cuts Final: 816
